Traveling Salesman Problem/TSP_generados/Aleatorio1620390913_8.tsp
NAME: Aleatorio1620390913_8.tsp
COMMENT: Randomly generated scenario
TYPE: TSP
DIMENSION: 8
EDGE_WEIGHT_TYPE: ATT
NODE_COORD_SECTION
1 0.52 39.66
2 42.46 32.18
3 27.46 43.74
4 35.09 5.38
5 44.65 3.2
6 4.65 40.42
7 23.1 3.41
8 14.32 48.86
