Traveling Salesman Problem/TSP_generados/Aleatorio1620390913_8.opt.tour
NAME: Aleatorio1620390913_8.opt.tour
COMMENT: Optimal solution for Aleatorio1620390913_8 (143.80060606953964)
TYPE: TOUR
DIMENSION: 8
TOUR_SECTION
1 6 8 3 2 5 4 7
-1
EOF
